benchmarks_vrp/CMT5/fixed_c_size/CMT5_13.vrp
NAME: CMT5_13
TYPE: CVRP
COMMENT: 1291.29 - Cluster Nr.13
DIMENSION: 17
CAPACITY: 200
EDGE_WEIGHT_TYPE: EUC_2D
NODE_COORD_TYPE: TWOD_COORDS
NODE_COORD_SECTION: 
8 30 48
10 41 46
16 35 40
1 32 39
11 37 47
4 42 41
5 38 46
14 31 52
15 37 52
9 35 51
12 40 60
6 41 49
3 30 50
7 33 44
2 37 56
13 35 35
17 42 57
DEPOT_SECTION: 
13
-1
DEMAND_SECTION: 
11 6
1 5
17 8
7 20
14 27
4 19
12 21
2 5
3 33
5 12
9 16
13 0
8 15
6 10
15 7
10 18
16 16
EOF
