benchmarks_vrp/CMT5/fixed_c_size/CMT5_13.tour
NAME: CMT5_13 solution
TYPE: TOUR
TOUR_SECTION:
13 1 7 16 -1
13 4 10 5 11 6 17 12 2 15 9 14 3 8 -1
-1
EOF